100
1000
166
166
166
166
165
164
164
164
163
163
162
162
162
161
160
159
159
159
158
158
157
156
156
152
151
150
149
149
149
147
147
146
145
145
144
144
144
142
142
141
141
141
141
140
140
140
139
138
138
137
137
137
137
135
135
134
133
133
133
133
132
132
132
131
131
131
130
130
130
130
130
130
129
129
129
128
128
126
126
125
125
124
123
123
121
120
120
120
119
119
119
118
117
117
117
117
115
115
115
114
